NAME: u159
COMMENT: Local search tour for u159 (48416.41148608448)
TYPE: TOUR
DIMENSION: 159
TOUR_SECTION: 1 3 5 153 6 7 152 154 155 151 150 149 147 148 8 9 10 146 145 144 11 12 13 16 17 15 14 143 142 141 139 140 137 138 32 31 19 20 21 18 22 23 24 25 26 27 28 29 30 33 34 35 37 36 38 135 136 133 134 132 41 39 40 42 43 44 45 46 49 51 52 53 54 55 56 57 58 59 60 61 62 63 64 65 66 67 68 69 70 71 72 78 79 80 81 82 77 76 73 74 75 50 48 47 119 120 121 122 123 114 115 116 117 118 93 92 91 90 89 94 88 95 96 87 83 84 85 86 97 98 99 100 101 102 103 104 105 106 107 108 109 110 111 112 113 125 124 130 131 128 129 127 126 158 157 156 4 2 159 -1
EOF